50	
1001	
3908	
701	299
1064	796
825	429
337	65
966	623
1014	702
1154	999
800	401
575	196
1115	904
586	204
1024	720
807	408
730	327
503	148
963	617
959	611
162	15
723	320
1001	679
1062	791
954	604
1067	801
1110	893
640	246
278	44
1144	973
1077	821
332	63
403	94
787	386
1069	805
885	505
959	612
634	241
932	570
506	150
1013	700
928	564
1112	897
1020	713
948	595
262	39
1089	848
706	304
534	168
988	658
973	634
1146	978
467	127